# Solution for model recoveryProblem_model
# Objective value = 15002
_r[81,Do_nothing,Do_nothing] 1
_r[81,Do_nothing,Recover] 0
_r[81,R1,Do_nothing] 0
_r[81,R1,Recover] 0
_r[81,R2,Do_nothing] 0
_r[81,R2,Recover] 0
_r[81,R3,Do_nothing] 0
_r[81,R3,Recover] 0
_r[171,Do_nothing,Do_nothing] 1
_r[171,Do_nothing,Recover] 0
_r[171,R1,Do_nothing] 0
_r[171,R1,Recover] 0
_r[171,R2,Do_nothing] 0
_r[171,R2,Recover] 0
_r[171,R3,Do_nothing] 0
_r[171,R3,Recover] 0
_r[69,Do_nothing,Do_nothing] 1
_r[69,Do_nothing,Recover] 0
_r[69,R1,Do_nothing] 0
_r[69,R1,Recover] 0
_r[69,R2,Do_nothing] 0
_r[69,R2,Recover] 0
_r[69,R3,Do_nothing] 0
_r[69,R3,Recover] 0
_r[114,Do_nothing,Do_nothing] 1
_r[114,Do_nothing,Recover] 0
_r[114,R1,Do_nothing] 0
_r[114,R1,Recover] 0
_r[114,R2,Do_nothing] 0
_r[114,R2,Recover] 0
_r[114,R3,Do_nothing] 0
_r[114,R3,Recover] 0
_r[20,Do_nothing,Do_nothing] 1
_r[20,Do_nothing,Recover] 0
_r[20,R1,Do_nothing] 0
_r[20,R1,Recover] 0
_r[20,R2,Do_nothing] 0
_r[20,R2,Recover] 0
_r[20,R3,Do_nothing] 0
_r[20,R3,Recover] 0
_r[145,Do_nothing,Do_nothing] 1
_r[145,Do_nothing,Recover] 0
_r[145,R1,Do_nothing] 0
_r[145,R1,Recover] 0
_r[145,R2,Do_nothing] 0
_r[145,R2,Recover] 0
_r[145,R3,Do_nothing] 0
_r[145,R3,Recover] 0
_r[92,Do_nothing,Do_nothing] 1
_r[92,Do_nothing,Recover] 0
_r[92,R1,Do_nothing] 0
_r[92,R1,Recover] 0
_r[92,R2,Do_nothing] 0
_r[92,R2,Recover] 0
_r[92,R3,Do_nothing] 0
_r[92,R3,Recover] 0
_r[110,Do_nothing,Do_nothing] 1
_r[110,Do_nothing,Recover] 0
_r[110,R1,Do_nothing] 0
_r[110,R1,Recover] 0
_r[110,R2,Do_nothing] 0
_r[110,R2,Recover] 0
_r[110,R3,Do_nothing] 0
_r[110,R3,Recover] 0
_r[122,Do_nothing,Do_nothing] 1
_r[122,Do_nothing,Recover] 0
_r[122,R1,Do_nothing] 0
_r[122,R1,Recover] 0
_r[122,R2,Do_nothing] 0
_r[122,R2,Recover] 0
_r[122,R3,Do_nothing] 0
_r[122,R3,Recover] 0
_r[137,Do_nothing,Do_nothing] 1
_r[137,Do_nothing,Recover] 0
_r[137,R1,Do_nothing] 0
_r[137,R1,Recover] 0
_r[137,R2,Do_nothing] 0
_r[137,R2,Recover] 0
_r[137,R3,Do_nothing] 0
_r[137,R3,Recover] 0
_r[56,Do_nothing,Do_nothing] 1
_r[56,Do_nothing,Recover] 0
_r[56,R1,Do_nothing] 0
_r[56,R1,Recover] 0
_r[56,R2,Do_nothing] 0
_r[56,R2,Recover] 0
_r[56,R3,Do_nothing] 0
_r[56,R3,Recover] 0
_r[100,Do_nothing,Do_nothing] 1
_r[100,Do_nothing,Recover] 0
_r[100,R1,Do_nothing] 0
_r[100,R1,Recover] 0
_r[100,R2,Do_nothing] 0
_r[100,R2,Recover] 0
_r[100,R3,Do_nothing] 0
_r[100,R3,Recover] 0
_r[173,Do_nothing,Do_nothing] 1
_r[173,Do_nothing,Recover] 0
_r[173,R1,Do_nothing] 0
_r[173,R1,Recover] 0
_r[173,R2,Do_nothing] 0
_r[173,R2,Recover] 0
_r[173,R3,Do_nothing] 0
_r[173,R3,Recover] 0
_r[9,Do_nothing,Do_nothing] 1
_r[9,Do_nothing,Recover] 0
_r[9,R1,Do_nothing] 0
_r[9,R1,Recover] 0
_r[9,R2,Do_nothing] 0
_r[9,R2,Recover] 0
_r[9,R3,Do_nothing] 0
_r[9,R3,Recover] 0
_r[88,Do_nothing,Do_nothing] 1
_r[88,Do_nothing,Recover] 0
_r[88,R1,Do_nothing] 0
_r[88,R1,Recover] 0
_r[88,R2,Do_nothing] 0
_r[88,R2,Recover] 0
_r[88,R3,Do_nothing] 0
_r[88,R3,Recover] 0
_r[36,Do_nothing,Do_nothing] 1
_r[36,Do_nothing,Recover] 0
_r[36,R1,Do_nothing] 0
_r[36,R1,Recover] 0
_r[36,R2,Do_nothing] 0
_r[36,R2,Recover] 0
_r[36,R3,Do_nothing] 0
_r[36,R3,Recover] 0
_r[149,Do_nothing,Do_nothing] 1
_r[149,Do_nothing,Recover] 0
_r[149,R1,Do_nothing] 0
_r[149,R1,Recover] 0
_r[149,R2,Do_nothing] 0
_r[149,R2,Recover] 0
_r[149,R3,Do_nothing] 0
_r[149,R3,Recover] 0
_r[66,Do_nothing,Do_nothing] 1
_r[66,Do_nothing,Recover] 0
_r[66,R1,Do_nothing] 0
_r[66,R1,Recover] 0
_r[66,R2,Do_nothing] 0
_r[66,R2,Recover] 0
_r[66,R3,Do_nothing] 0
_r[66,R3,Recover] 0
_r[191,Do_nothing,Do_nothing] 1
_r[191,Do_nothing,Recover] 0
_r[191,R1,Do_nothing] 0
_r[191,R1,Recover] 0
_r[191,R2,Do_nothing] 0
_r[191,R2,Recover] 0
_r[191,R3,Do_nothing] 0
_r[191,R3,Recover] 0
_r[14,Do_nothing,Do_nothing] 1
_r[14,Do_nothing,Recover] 0
_r[14,R1,Do_nothing] 0
_r[14,R1,Recover] 0
_r[14,R2,Do_nothing] 0
_r[14,R2,Recover] 0
_r[14,R3,Do_nothing] 0
_r[14,R3,Recover] 0
_r[159,Do_nothing,Do_nothing] 1
_r[159,Do_nothing,Recover] 0
_r[159,R1,Do_nothing] 0
_r[159,R1,Recover] 0
_r[159,R2,Do_nothing] 0
_r[159,R2,Recover] 0
_r[159,R3,Do_nothing] 0
_r[159,R3,Recover] 0
_r[6,Do_nothing,Do_nothing] 1
_r[6,Do_nothing,Recover] 0
_r[6,R1,Do_nothing] 0
_r[6,R1,Recover] 0
_r[6,R2,Do_nothing] 0
_r[6,R2,Recover] 0
_r[6,R3,Do_nothing] 0
_r[6,R3,Recover] 0
_r[26,Do_nothing,Do_nothing] 1
_r[26,Do_nothing,Recover] 0
_r[26,R1,Do_nothing] 0
_r[26,R1,Recover] 0
_r[26,R2,Do_nothing] 0
_r[26,R2,Recover] 0
_r[26,R3,Do_nothing] 0
_r[26,R3,Recover] 0
_r[119,Do_nothing,Do_nothing] 1
_r[119,Do_nothing,Recover] 0
_r[119,R1,Do_nothing] 0
_r[119,R1,Recover] 0
_r[119,R2,Do_nothing] 0
_r[119,R2,Recover] 0
_r[119,R3,Do_nothing] 0
_r[119,R3,Recover] 0
_r[164,Do_nothing,Do_nothing] 1
_r[164,Do_nothing,Recover] 0
_r[164,R1,Do_nothing] 0
_r[164,R1,Recover] 0
_r[164,R2,Do_nothing] 0
_r[164,R2,Recover] 0
_r[164,R3,Do_nothing] 0
_r[164,R3,Recover] 0
_r[86,Do_nothing,Do_nothing] 1
_r[86,Do_nothing,Recover] 0
_r[86,R1,Do_nothing] 0
_r[86,R1,Recover] 0
_r[86,R2,Do_nothing] 0
_r[86,R2,Recover] 0
_r[86,R3,Do_nothing] 0
_r[86,R3,Recover] 0
_r[61,Do_nothing,Do_nothing] 1
_r[61,Do_nothing,Recover] 0
_r[61,R1,Do_nothing] 0
_r[61,R1,Recover] 0
_r[61,R2,Do_nothing] 0
_r[61,R2,Recover] 0
_r[61,R3,Do_nothing] 0
_r[61,R3,Recover] 0
_r[165,Do_nothing,Do_nothing] 1
_r[165,Do_nothing,Recover] 0
_r[165,R1,Do_nothing] 0
_r[165,R1,Recover] 0
_r[165,R2,Do_nothing] 0
_r[165,R2,Recover] 0
_r[165,R3,Do_nothing] 0
_r[165,R3,Recover] 0
_r[147,Do_nothing,Do_nothing] 1
_r[147,Do_nothing,Recover] 0
_r[147,R1,Do_nothing] 0
_r[147,R1,Recover] 0
_r[147,R2,Do_nothing] 0
_r[147,R2,Recover] 0
_r[147,R3,Do_nothing] 0
_r[147,R3,Recover] 0
_r[136,Do_nothing,Do_nothing] 1
_r[136,Do_nothing,Recover] 0
_r[136,R1,Do_nothing] 0
_r[136,R1,Recover] 0
_r[136,R2,Do_nothing] 0
_r[136,R2,Recover] 0
_r[136,R3,Do_nothing] 0
_r[136,R3,Recover] 0
_r[31,Do_nothing,Do_nothing] 1
_r[31,Do_nothing,Recover] 0
_r[31,R1,Do_nothing] 0
_r[31,R1,Recover] 0
_r[31,R2,Do_nothing] 0
_r[31,R2,Recover] 0
_r[31,R3,Do_nothing] 0
_r[31,R3,Recover] 0
_r[53,Do_nothing,Do_nothing] 1
_r[53,Do_nothing,Recover] 0
_r[53,R1,Do_nothing] 0
_r[53,R1,Recover] 0
_r[53,R2,Do_nothing] 0
_r[53,R2,Recover] 0
_r[53,R3,Do_nothing] 0
_r[53,R3,Recover] 0
_r[168,Do_nothing,Do_nothing] 1
_r[168,Do_nothing,Recover] 0
_r[168,R1,Do_nothing] 0
_r[168,R1,Recover] 0
_r[168,R2,Do_nothing] 0
_r[168,R2,Recover] 0
_r[168,R3,Do_nothing] 0
_r[168,R3,Recover] 0
_r[167,Do_nothing,Do_nothing] 1
_r[167,Do_nothing,Recover] 0
_r[167,R1,Do_nothing] 0
_r[167,R1,Recover] 0
_r[167,R2,Do_nothing] 0
_r[167,R2,Recover] 0
_r[167,R3,Do_nothing] 0
_r[167,R3,Recover] 0
_r[45,Do_nothing,Do_nothing] 1
_r[45,Do_nothing,Recover] 0
_r[45,R1,Do_nothing] 0
_r[45,R1,Recover] 0
_r[45,R2,Do_nothing] 0
_r[45,R2,Recover] 0
_r[45,R3,Do_nothing] 0
_r[45,R3,Recover] 0
_r[193,Do_nothing,Do_nothing] 1
_r[193,Do_nothing,Recover] 0
_r[193,R1,Do_nothing] 0
_r[193,R1,Recover] 0
_r[193,R2,Do_nothing] 0
_r[193,R2,Recover] 0
_r[193,R3,Do_nothing] 0
_r[193,R3,Recover] 0
_r[197,Do_nothing,Do_nothing] 1
_r[197,Do_nothing,Recover] 0
_r[197,R1,Do_nothing] 0
_r[197,R1,Recover] 0
_r[197,R2,Do_nothing] 0
_r[197,R2,Recover] 0
_r[197,R3,Do_nothing] 0
_r[197,R3,Recover] 0
_r[108,Do_nothing,Do_nothing] 1
_r[108,Do_nothing,Recover] 0
_r[108,R1,Do_nothing] 0
_r[108,R1,Recover] 0
_r[108,R2,Do_nothing] 0
_r[108,R2,Recover] 0
_r[108,R3,Do_nothing] 0
_r[108,R3,Recover] 0
_r[148,Do_nothing,Do_nothing] 1
_r[148,Do_nothing,Recover] 0
_r[148,R1,Do_nothing] 0
_r[148,R1,Recover] 0
_r[148,R2,Do_nothing] 0
_r[148,R2,Recover] 0
_r[148,R3,Do_nothing] 0
_r[148,R3,Recover] 0
_r[33,Do_nothing,Do_nothing] 1
_r[33,Do_nothing,Recover] 0
_r[33,R1,Do_nothing] 0
_r[33,R1,Recover] 0
_r[33,R2,Do_nothing] 0
_r[33,R2,Recover] 0
_r[33,R3,Do_nothing] 0
_r[33,R3,Recover] 0
_r[83,Do_nothing,Do_nothing] 1
_r[83,Do_nothing,Recover] 0
_r[83,R1,Do_nothing] 0
_r[83,R1,Recover] 0
_r[83,R2,Do_nothing] 0
_r[83,R2,Recover] 0
_r[83,R3,Do_nothing] 0
_r[83,R3,Recover] 0
_r[163,Do_nothing,Do_nothing] 1
_r[163,Do_nothing,Recover] 0
_r[163,R1,Do_nothing] 0
_r[163,R1,Recover] 0
_r[163,R2,Do_nothing] 0
_r[163,R2,Recover] 0
_r[163,R3,Do_nothing] 0
_r[163,R3,Recover] 0
_r[49,Do_nothing,Do_nothing] 1
_r[49,Do_nothing,Recover] 0
_r[49,R1,Do_nothing] 0
_r[49,R1,Recover] 0
_r[49,R2,Do_nothing] 0
_r[49,R2,Recover] 0
_r[49,R3,Do_nothing] 0
_r[49,R3,Recover] 0
_r[151,Do_nothing,Do_nothing] 1
_r[151,Do_nothing,Recover] 0
_r[151,R1,Do_nothing] 0
_r[151,R1,Recover] 0
_r[151,R2,Do_nothing] 0
_r[151,R2,Recover] 0
_r[151,R3,Do_nothing] 0
_r[151,R3,Recover] 0
_r[60,Do_nothing,Do_nothing] 1
_r[60,Do_nothing,Recover] 0
_r[60,R1,Do_nothing] 0
_r[60,R1,Recover] 0
_r[60,R2,Do_nothing] 0
_r[60,R2,Recover] 0
_r[60,R3,Do_nothing] 0
_r[60,R3,Recover] 0
_r[186,Do_nothing,Do_nothing] 1
_r[186,Do_nothing,Recover] 0
_r[186,R1,Do_nothing] 0
_r[186,R1,Recover] 0
_r[186,R2,Do_nothing] 0
_r[186,R2,Recover] 0
_r[186,R3,Do_nothing] 0
_r[186,R3,Recover] 0
_r[156,Do_nothing,Do_nothing] 1
_r[156,Do_nothing,Recover] 0
_r[156,R1,Do_nothing] 0
_r[156,R1,Recover] 0
_r[156,R2,Do_nothing] 0
_r[156,R2,Recover] 0
_r[156,R3,Do_nothing] 0
_r[156,R3,Recover] 0
_r[155,Do_nothing,Do_nothing] 1
_r[155,Do_nothing,Recover] 0
_r[155,R1,Do_nothing] 0
_r[155,R1,Recover] 0
_r[155,R2,Do_nothing] 0
_r[155,R2,Recover] 0
_r[155,R3,Do_nothing] 0
_r[155,R3,Recover] 0
_r[172,Do_nothing,Do_nothing] 1
_r[172,Do_nothing,Recover] 0
_r[172,R1,Do_nothing] 0
_r[172,R1,Recover] 0
_r[172,R2,Do_nothing] 0
_r[172,R2,Recover] 0
_r[172,R3,Do_nothing] 0
_r[172,R3,Recover] 0
_r[2,Do_nothing,Do_nothing] 1
_r[2,Do_nothing,Recover] 0
_r[2,R1,Do_nothing] 0
_r[2,R1,Recover] 0
_r[2,R2,Do_nothing] 0
_r[2,R2,Recover] 0
_r[2,R3,Do_nothing] 0
_r[2,R3,Recover] 0
_r[180,Do_nothing,Do_nothing] 1
_r[180,Do_nothing,Recover] 0
_r[180,R1,Do_nothing] 0
_r[180,R1,Recover] 0
_r[180,R2,Do_nothing] 0
_r[180,R2,Recover] 0
_r[180,R3,Do_nothing] 0
_r[180,R3,Recover] 0
_r[150,Do_nothing,Do_nothing] 1
_r[150,Do_nothing,Recover] 0
_r[150,R1,Do_nothing] 0
_r[150,R1,Recover] 0
_r[150,R2,Do_nothing] 0
_r[150,R2,Recover] 0
_r[150,R3,Do_nothing] 0
_r[150,R3,Recover] 0
_r[91,Do_nothing,Do_nothing] 1
_r[91,Do_nothing,Recover] 0
_r[91,R1,Do_nothing] 0
_r[91,R1,Recover] 0
_r[91,R2,Do_nothing] 0
_r[91,R2,Recover] 0
_r[91,R3,Do_nothing] 0
_r[91,R3,Recover] 0
_r[68,Do_nothing,Do_nothing] 1
_r[68,Do_nothing,Recover] 0
_r[68,R1,Do_nothing] 0
_r[68,R1,Recover] 0
_r[68,R2,Do_nothing] 0
_r[68,R2,Recover] 0
_r[68,R3,Do_nothing] 0
_r[68,R3,Recover] 0
_r[29,Do_nothing,Do_nothing] 1
_r[29,Do_nothing,Recover] 0
_r[29,R1,Do_nothing] 0
_r[29,R1,Recover] 0
_r[29,R2,Do_nothing] 0
_r[29,R2,Recover] 0
_r[29,R3,Do_nothing] 0
_r[29,R3,Recover] 0
_r[178,Do_nothing,Do_nothing] 1
_r[178,Do_nothing,Recover] 0
_r[178,R1,Do_nothing] 0
_r[178,R1,Recover] 0
_r[178,R2,Do_nothing] 0
_r[178,R2,Recover] 0
_r[178,R3,Do_nothing] 0
_r[178,R3,Recover] 0
_r[95,Do_nothing,Do_nothing] 1
_r[95,Do_nothing,Recover] 0
_r[95,R1,Do_nothing] 0
_r[95,R1,Recover] 0
_r[95,R2,Do_nothing] 0
_r[95,R2,Recover] 0
_r[95,R3,Do_nothing] 0
_r[95,R3,Recover] 0
_r[90,Do_nothing,Do_nothing] 1
_r[90,Do_nothing,Recover] 0
_r[90,R1,Do_nothing] 0
_r[90,R1,Recover] 0
_r[90,R2,Do_nothing] 0
_r[90,R2,Recover] 0
_r[90,R3,Do_nothing] 0
_r[90,R3,Recover] 0
_r[111,Do_nothing,Do_nothing] 1
_r[111,Do_nothing,Recover] 0
_r[111,R1,Do_nothing] 0
_r[111,R1,Recover] 0
_r[111,R2,Do_nothing] 0
_r[111,R2,Recover] 0
_r[111,R3,Do_nothing] 0
_r[111,R3,Recover] 0
_r[13,Do_nothing,Do_nothing] 1
_r[13,Do_nothing,Recover] 0
_r[13,R1,Do_nothing] 0
_r[13,R1,Recover] 0
_r[13,R2,Do_nothing] 0
_r[13,R2,Recover] 0
_r[13,R3,Do_nothing] 0
_r[13,R3,Recover] 0
_r[154,Do_nothing,Do_nothing] 1
_r[154,Do_nothing,Recover] 0
_r[154,R1,Do_nothing] 0
_r[154,R1,Recover] 0
_r[154,R2,Do_nothing] 0
_r[154,R2,Recover] 0
_r[154,R3,Do_nothing] 0
_r[154,R3,Recover] 0
_r[3,Do_nothing,Do_nothing] 1
_r[3,Do_nothing,Recover] 0
_r[3,R1,Do_nothing] 0
_r[3,R1,Recover] 0
_r[3,R2,Do_nothing] 0
_r[3,R2,Recover] 0
_r[3,R3,Do_nothing] 0
_r[3,R3,Recover] 0
_r[55,Do_nothing,Do_nothing] 1
_r[55,Do_nothing,Recover] 0
_r[55,R1,Do_nothing] 0
_r[55,R1,Recover] 0
_r[55,R2,Do_nothing] 0
_r[55,R2,Recover] 0
_r[55,R3,Do_nothing] 0
_r[55,R3,Recover] 0
_r[120,Do_nothing,Do_nothing] 1
_r[120,Do_nothing,Recover] 0
_r[120,R1,Do_nothing] 0
_r[120,R1,Recover] 0
_r[120,R2,Do_nothing] 0
_r[120,R2,Recover] 0
_r[120,R3,Do_nothing] 0
_r[120,R3,Recover] 0
_r[80,Do_nothing,Do_nothing] 1
_r[80,Do_nothing,Recover] 0
_r[80,R1,Do_nothing] 0
_r[80,R1,Recover] 0
_r[80,R2,Do_nothing] 0
_r[80,R2,Recover] 0
_r[80,R3,Do_nothing] 0
_r[80,R3,Recover] 0
_r[131,Do_nothing,Do_nothing] 1
_r[131,Do_nothing,Recover] 0
_r[131,R1,Do_nothing] 0
_r[131,R1,Recover] 0
_r[131,R2,Do_nothing] 0
_r[131,R2,Recover] 0
_r[131,R3,Do_nothing] 0
_r[131,R3,Recover] 0
_r[87,Do_nothing,Do_nothing] 1
_r[87,Do_nothing,Recover] 0
_r[87,R1,Do_nothing] 0
_r[87,R1,Recover] 0
_r[87,R2,Do_nothing] 0
_r[87,R2,Recover] 0
_r[87,R3,Do_nothing] 0
_r[87,R3,Recover] 0
_r[130,Do_nothing,Do_nothing] 1
_r[130,Do_nothing,Recover] 0
_r[130,R1,Do_nothing] 0
_r[130,R1,Recover] 0
_r[130,R2,Do_nothing] 0
_r[130,R2,Recover] 0
_r[130,R3,Do_nothing] 0
_r[130,R3,Recover] 0
_r[158,Do_nothing,Do_nothing] 1
_r[158,Do_nothing,Recover] 0
_r[158,R1,Do_nothing] 0
_r[158,R1,Recover] 0
_r[158,R2,Do_nothing] 0
_r[158,R2,Recover] 0
_r[158,R3,Do_nothing] 0
_r[158,R3,Recover] 0
_r[146,Do_nothing,Do_nothing] 1
_r[146,Do_nothing,Recover] 0
_r[146,R1,Do_nothing] 0
_r[146,R1,Recover] 0
_r[146,R2,Do_nothing] 0
_r[146,R2,Recover] 0
_r[146,R3,Do_nothing] 0
_r[146,R3,Recover] 0
_r[93,Do_nothing,Do_nothing] 1
_r[93,Do_nothing,Recover] 0
_r[93,R1,Do_nothing] 0
_r[93,R1,Recover] 0
_r[93,R2,Do_nothing] 0
_r[93,R2,Recover] 0
_r[93,R3,Do_nothing] 0
_r[93,R3,Recover] 0
_r[12,Do_nothing,Do_nothing] 1
_r[12,Do_nothing,Recover] 0
_r[12,R1,Do_nothing] 0
_r[12,R1,Recover] 0
_r[12,R2,Do_nothing] 0
_r[12,R2,Recover] 0
_r[12,R3,Do_nothing] 0
_r[12,R3,Recover] 0
_r[161,Do_nothing,Do_nothing] 1
_r[161,Do_nothing,Recover] 0
_r[161,R1,Do_nothing] 0
_r[161,R1,Recover] 0
_r[161,R2,Do_nothing] 0
_r[161,R2,Recover] 0
_r[161,R3,Do_nothing] 0
_r[161,R3,Recover] 0
_r[140,Do_nothing,Do_nothing] 1
_r[140,Do_nothing,Recover] 0
_r[140,R1,Do_nothing] 0
_r[140,R1,Recover] 0
_r[140,R2,Do_nothing] 0
_r[140,R2,Recover] 0
_r[140,R3,Do_nothing] 0
_r[140,R3,Recover] 0
_r[54,Do_nothing,Do_nothing] 1
_r[54,Do_nothing,Recover] 0
_r[54,R1,Do_nothing] 0
_r[54,R1,Recover] 0
_r[54,R2,Do_nothing] 0
_r[54,R2,Recover] 0
_r[54,R3,Do_nothing] 0
_r[54,R3,Recover] 0
_r[41,Do_nothing,Do_nothing] 1
_r[41,Do_nothing,Recover] 0
_r[41,R1,Do_nothing] 0
_r[41,R1,Recover] 0
_r[41,R2,Do_nothing] 0
_r[41,R2,Recover] 0
_r[41,R3,Do_nothing] 0
_r[41,R3,Recover] 0
_r[52,Do_nothing,Do_nothing] 1
_r[52,Do_nothing,Recover] 0
_r[52,R1,Do_nothing] 0
_r[52,R1,Recover] 0
_r[52,R2,Do_nothing] 0
_r[52,R2,Recover] 0
_r[52,R3,Do_nothing] 0
_r[52,R3,Recover] 0
_r[82,Do_nothing,Do_nothing] 1
_r[82,Do_nothing,Recover] 0
_r[82,R1,Do_nothing] 0
_r[82,R1,Recover] 0
_r[82,R2,Do_nothing] 0
_r[82,R2,Recover] 0
_r[82,R3,Do_nothing] 0
_r[82,R3,Recover] 0
_r[47,Do_nothing,Do_nothing] 1
_r[47,Do_nothing,Recover] 0
_r[47,R1,Do_nothing] 0
_r[47,R1,Recover] 0
_r[47,R2,Do_nothing] 0
_r[47,R2,Recover] 0
_r[47,R3,Do_nothing] 0
_r[47,R3,Recover] 0
_r[135,Do_nothing,Do_nothing] 1
_r[135,Do_nothing,Recover] 0
_r[135,R1,Do_nothing] 0
_r[135,R1,Recover] 0
_r[135,R2,Do_nothing] 0
_r[135,R2,Recover] 0
_r[135,R3,Do_nothing] 0
_r[135,R3,Recover] 0
_r[198,Do_nothing,Do_nothing] 1
_r[198,Do_nothing,Recover] 0
_r[198,R1,Do_nothing] 0
_r[198,R1,Recover] 0
_r[198,R2,Do_nothing] 0
_r[198,R2,Recover] 0
_r[198,R3,Do_nothing] 0
_r[198,R3,Recover] 0
_r[44,Do_nothing,Do_nothing] 1
_r[44,Do_nothing,Recover] 0
_r[44,R1,Do_nothing] 0
_r[44,R1,Recover] 0
_r[44,R2,Do_nothing] 0
_r[44,R2,Recover] 0
_r[44,R3,Do_nothing] 0
_r[44,R3,Recover] 0
_r[153,Do_nothing,Do_nothing] 1
_r[153,Do_nothing,Recover] 0
_r[153,R1,Do_nothing] 0
_r[153,R1,Recover] 0
_r[153,R2,Do_nothing] 0
_r[153,R2,Recover] 0
_r[153,R3,Do_nothing] 0
_r[153,R3,Recover] 0
_r[128,Do_nothing,Do_nothing] 1
_r[128,Do_nothing,Recover] 0
_r[128,R1,Do_nothing] 0
_r[128,R1,Recover] 0
_r[128,R2,Do_nothing] 0
_r[128,R2,Recover] 0
_r[128,R3,Do_nothing] 0
_r[128,R3,Recover] 0
_r[104,Do_nothing,Do_nothing] 1
_r[104,Do_nothing,Recover] 0
_r[104,R1,Do_nothing] 0
_r[104,R1,Recover] 0
_r[104,R2,Do_nothing] 0
_r[104,R2,Recover] 0
_r[104,R3,Do_nothing] 0
_r[104,R3,Recover] 0
_r[109,Do_nothing,Do_nothing] 1
_r[109,Do_nothing,Recover] 0
_r[109,R1,Do_nothing] 0
_r[109,R1,Recover] 0
_r[109,R2,Do_nothing] 0
_r[109,R2,Recover] 0
_r[109,R3,Do_nothing] 0
_r[109,R3,Recover] 0
_r[185,Do_nothing,Do_nothing] 1
_r[185,Do_nothing,Recover] 0
_r[185,R1,Do_nothing] 0
_r[185,R1,Recover] 0
_r[185,R2,Do_nothing] 0
_r[185,R2,Recover] 0
_r[185,R3,Do_nothing] 0
_r[185,R3,Recover] 0
_r[30,Do_nothing,Do_nothing] 1
_r[30,Do_nothing,Recover] 0
_r[30,R1,Do_nothing] 0
_r[30,R1,Recover] 0
_r[30,R2,Do_nothing] 0
_r[30,R2,Recover] 0
_r[30,R3,Do_nothing] 0
_r[30,R3,Recover] 0
_r[71,Do_nothing,Do_nothing] 1
_r[71,Do_nothing,Recover] 0
_r[71,R1,Do_nothing] 0
_r[71,R1,Recover] 0
_r[71,R2,Do_nothing] 0
_r[71,R2,Recover] 0
_r[71,R3,Do_nothing] 0
_r[71,R3,Recover] 0
_r[176,Do_nothing,Do_nothing] 1
_r[176,Do_nothing,Recover] 0
_r[176,R1,Do_nothing] 0
_r[176,R1,Recover] 0
_r[176,R2,Do_nothing] 0
_r[176,R2,Recover] 0
_r[176,R3,Do_nothing] 0
_r[176,R3,Recover] 0
_r[196,Do_nothing,Do_nothing] 1
_r[196,Do_nothing,Recover] 0
_r[196,R1,Do_nothing] 0
_r[196,R1,Recover] 0
_r[196,R2,Do_nothing] 0
_r[196,R2,Recover] 0
_r[196,R3,Do_nothing] 0
_r[196,R3,Recover] 0
_r[21,Do_nothing,Do_nothing] 1
_r[21,Do_nothing,Recover] 0
_r[21,R1,Do_nothing] 0
_r[21,R1,Recover] 0
_r[21,R2,Do_nothing] 0
_r[21,R2,Recover] 0
_r[21,R3,Do_nothing] 0
_r[21,R3,Recover] 0
_r[96,Do_nothing,Do_nothing] 1
_r[96,Do_nothing,Recover] 0
_r[96,R1,Do_nothing] 0
_r[96,R1,Recover] 0
_r[96,R2,Do_nothing] 0
_r[96,R2,Recover] 0
_r[96,R3,Do_nothing] 0
_r[96,R3,Recover] 0
_r[72,Do_nothing,Do_nothing] 1
_r[72,Do_nothing,Recover] 0
_r[72,R1,Do_nothing] 0
_r[72,R1,Recover] 0
_r[72,R2,Do_nothing] 0
_r[72,R2,Recover] 0
_r[72,R3,Do_nothing] 0
_r[72,R3,Recover] 0
_r[94,Do_nothing,Do_nothing] 1
_r[94,Do_nothing,Recover] 0
_r[94,R1,Do_nothing] 0
_r[94,R1,Recover] 0
_r[94,R2,Do_nothing] 0
_r[94,R2,Recover] 0
_r[94,R3,Do_nothing] 0
_r[94,R3,Recover] 0
_r[18,Do_nothing,Do_nothing] 1
_r[18,Do_nothing,Recover] 0
_r[18,R1,Do_nothing] 0
_r[18,R1,Recover] 0
_r[18,R2,Do_nothing] 0
_r[18,R2,Recover] 0
_r[18,R3,Do_nothing] 0
_r[18,R3,Recover] 0
_r[189,Do_nothing,Do_nothing] 1
_r[189,Do_nothing,Recover] 0
_r[189,R1,Do_nothing] 0
_r[189,R1,Recover] 0
_r[189,R2,Do_nothing] 0
_r[189,R2,Recover] 0
_r[189,R3,Do_nothing] 0
_r[189,R3,Recover] 0
_r[169,Do_nothing,Do_nothing] 1
_r[169,Do_nothing,Recover] 0
_r[169,R1,Do_nothing] 0
_r[169,R1,Recover] 0
_r[169,R2,Do_nothing] 0
_r[169,R2,Recover] 0
_r[169,R3,Do_nothing] 0
_r[169,R3,Recover] 0
_r[28,Do_nothing,Do_nothing] 1
_r[28,Do_nothing,Recover] 0
_r[28,R1,Do_nothing] 0
_r[28,R1,Recover] 0
_r[28,R2,Do_nothing] 0
_r[28,R2,Recover] 0
_r[28,R3,Do_nothing] 0
_r[28,R3,Recover] 0
_r[129,Do_nothing,Do_nothing] 1
_r[129,Do_nothing,Recover] 0
_r[129,R1,Do_nothing] 0
_r[129,R1,Recover] 0
_r[129,R2,Do_nothing] 0
_r[129,R2,Recover] 0
_r[129,R3,Do_nothing] 0
_r[129,R3,Recover] 0
_r[8,Do_nothing,Do_nothing] 1
_r[8,Do_nothing,Recover] 0
_r[8,R1,Do_nothing] 0
_r[8,R1,Recover] 0
_r[8,R2,Do_nothing] 0
_r[8,R2,Recover] 0
_r[8,R3,Do_nothing] 0
_r[8,R3,Recover] 0
_r[144,Do_nothing,Do_nothing] 1
_r[144,Do_nothing,Recover] 0
_r[144,R1,Do_nothing] 0
_r[144,R1,Recover] 0
_r[144,R2,Do_nothing] 0
_r[144,R2,Recover] 0
_r[144,R3,Do_nothing] 0
_r[144,R3,Recover] 0
_r[58,Do_nothing,Do_nothing] 1
_r[58,Do_nothing,Recover] 0
_r[58,R1,Do_nothing] 0
_r[58,R1,Recover] 0
_r[58,R2,Do_nothing] 0
_r[58,R2,Recover] 0
_r[58,R3,Do_nothing] 0
_r[58,R3,Recover] 0
_r[106,Do_nothing,Do_nothing] 1
_r[106,Do_nothing,Recover] 0
_r[106,R1,Do_nothing] 0
_r[106,R1,Recover] 0
_r[106,R2,Do_nothing] 0
_r[106,R2,Recover] 0
_r[106,R3,Do_nothing] 0
_r[106,R3,Recover] 0
_r[35,Do_nothing,Do_nothing] 1
_r[35,Do_nothing,Recover] 0
_r[35,R1,Do_nothing] 0
_r[35,R1,Recover] 0
_r[35,R2,Do_nothing] 0
_r[35,R2,Recover] 0
_r[35,R3,Do_nothing] 0
_r[35,R3,Recover] 0
_r[123,Do_nothing,Do_nothing] 1
_r[123,Do_nothing,Recover] 0
_r[123,R1,Do_nothing] 0
_r[123,R1,Recover] 0
_r[123,R2,Do_nothing] 0
_r[123,R2,Recover] 0
_r[123,R3,Do_nothing] 0
_r[123,R3,Recover] 0
_r[160,Do_nothing,Do_nothing] 1
_r[160,Do_nothing,Recover] 0
_r[160,R1,Do_nothing] 0
_r[160,R1,Recover] 0
_r[160,R2,Do_nothing] 0
_r[160,R2,Recover] 0
_r[160,R3,Do_nothing] 0
_r[160,R3,Recover] 0
_r[97,Do_nothing,Do_nothing] 1
_r[97,Do_nothing,Recover] 0
_r[97,R1,Do_nothing] 0
_r[97,R1,Recover] 0
_r[97,R2,Do_nothing] 0
_r[97,R2,Recover] 0
_r[97,R3,Do_nothing] 0
_r[97,R3,Recover] 0
_r[134,Do_nothing,Do_nothing] 1
_r[134,Do_nothing,Recover] 0
_r[134,R1,Do_nothing] 0
_r[134,R1,Recover] 0
_r[134,R2,Do_nothing] 0
_r[134,R2,Recover] 0
_r[134,R3,Do_nothing] 0
_r[134,R3,Recover] 0
_r[166,Do_nothing,Do_nothing] 1
_r[166,Do_nothing,Recover] 0
_r[166,R1,Do_nothing] 0
_r[166,R1,Recover] 0
_r[166,R2,Do_nothing] 0
_r[166,R2,Recover] 0
_r[166,R3,Do_nothing] 0
_r[166,R3,Recover] 0
_r[157,Do_nothing,Do_nothing] 1
_r[157,Do_nothing,Recover] 0
_r[157,R1,Do_nothing] 0
_r[157,R1,Recover] 0
_r[157,R2,Do_nothing] 0
_r[157,R2,Recover] 0
_r[157,R3,Do_nothing] 0
_r[157,R3,Recover] 0
_r[117,Do_nothing,Do_nothing] 1
_r[117,Do_nothing,Recover] 0
_r[117,R1,Do_nothing] 0
_r[117,R1,Recover] 0
_r[117,R2,Do_nothing] 0
_r[117,R2,Recover] 0
_r[117,R3,Do_nothing] 0
_r[117,R3,Recover] 0
_r[170,Do_nothing,Do_nothing] 1
_r[170,Do_nothing,Recover] 0
_r[170,R1,Do_nothing] 0
_r[170,R1,Recover] 0
_r[170,R2,Do_nothing] 0
_r[170,R2,Recover] 0
_r[170,R3,Do_nothing] 0
_r[170,R3,Recover] 0
_r[57,Do_nothing,Do_nothing] 1
_r[57,Do_nothing,Recover] 0
_r[57,R1,Do_nothing] 0
_r[57,R1,Recover] 0
_r[57,R2,Do_nothing] 0
_r[57,R2,Recover] 0
_r[57,R3,Do_nothing] 0
_r[57,R3,Recover] 0
_r[10,Do_nothing,Do_nothing] 1
_r[10,Do_nothing,Recover] 0
_r[10,R1,Do_nothing] 0
_r[10,R1,Recover] 0
_r[10,R2,Do_nothing] 0
_r[10,R2,Recover] 0
_r[10,R3,Do_nothing] 0
_r[10,R3,Recover] 0
_r[126,Do_nothing,Do_nothing] 1
_r[126,Do_nothing,Recover] 0
_r[126,R1,Do_nothing] 0
_r[126,R1,Recover] 0
_r[126,R2,Do_nothing] 0
_r[126,R2,Recover] 0
_r[126,R3,Do_nothing] 0
_r[126,R3,Recover] 0
_r[39,Do_nothing,Do_nothing] 1
_r[39,Do_nothing,Recover] 0
_r[39,R1,Do_nothing] 0
_r[39,R1,Recover] 0
_r[39,R2,Do_nothing] 0
_r[39,R2,Recover] 0
_r[39,R3,Do_nothing] 0
_r[39,R3,Recover] 0
_r[63,Do_nothing,Do_nothing] 1
_r[63,Do_nothing,Recover] 0
_r[63,R1,Do_nothing] 0
_r[63,R1,Recover] 0
_r[63,R2,Do_nothing] 0
_r[63,R2,Recover] 0
_r[63,R3,Do_nothing] 0
_r[63,R3,Recover] 0
_r[19,Do_nothing,Do_nothing] 1
_r[19,Do_nothing,Recover] 0
_r[19,R1,Do_nothing] 0
_r[19,R1,Recover] 0
_r[19,R2,Do_nothing] 0
_r[19,R2,Recover] 0
_r[19,R3,Do_nothing] 0
_r[19,R3,Recover] 0
_r[75,Do_nothing,Do_nothing] 1
_r[75,Do_nothing,Recover] 0
_r[75,R1,Do_nothing] 0
_r[75,R1,Recover] 0
_r[75,R2,Do_nothing] 0
_r[75,R2,Recover] 0
_r[75,R3,Do_nothing] 0
_r[75,R3,Recover] 0
_r[142,Do_nothing,Do_nothing] 1
_r[142,Do_nothing,Recover] 0
_r[142,R1,Do_nothing] 0
_r[142,R1,Recover] 0
_r[142,R2,Do_nothing] 0
_r[142,R2,Recover] 0
_r[142,R3,Do_nothing] 0
_r[142,R3,Recover] 0
_r[152,Do_nothing,Do_nothing] 1
_r[152,Do_nothing,Recover] 0
_r[152,R1,Do_nothing] 0
_r[152,R1,Recover] 0
_r[152,R2,Do_nothing] 0
_r[152,R2,Recover] 0
_r[152,R3,Do_nothing] 0
_r[152,R3,Recover] 0
_r[59,Do_nothing,Do_nothing] 1
_r[59,Do_nothing,Recover] 0
_r[59,R1,Do_nothing] 0
_r[59,R1,Recover] 0
_r[59,R2,Do_nothing] 0
_r[59,R2,Recover] 0
_r[59,R3,Do_nothing] 0
_r[59,R3,Recover] 0
_r[64,Do_nothing,Do_nothing] 1
_r[64,Do_nothing,Recover] 0
_r[64,R1,Do_nothing] 0
_r[64,R1,Recover] 0
_r[64,R2,Do_nothing] 0
_r[64,R2,Recover] 0
_r[64,R3,Do_nothing] 0
_r[64,R3,Recover] 0
_r[62,Do_nothing,Do_nothing] 1
_r[62,Do_nothing,Recover] 0
_r[62,R1,Do_nothing] 0
_r[62,R1,Recover] 0
_r[62,R2,Do_nothing] 0
_r[62,R2,Recover] 0
_r[62,R3,Do_nothing] 0
_r[62,R3,Recover] 0
_r[112,Do_nothing,Do_nothing] 1
_r[112,Do_nothing,Recover] 0
_r[112,R1,Do_nothing] 0
_r[112,R1,Recover] 0
_r[112,R2,Do_nothing] 0
_r[112,R2,Recover] 0
_r[112,R3,Do_nothing] 0
_r[112,R3,Recover] 0
_r[46,Do_nothing,Do_nothing] 1
_r[46,Do_nothing,Recover] 0
_r[46,R1,Do_nothing] 0
_r[46,R1,Recover] 0
_r[46,R2,Do_nothing] 0
_r[46,R2,Recover] 0
_r[46,R3,Do_nothing] 0
_r[46,R3,Recover] 0
_r[15,Do_nothing,Do_nothing] 1
_r[15,Do_nothing,Recover] 0
_r[15,R1,Do_nothing] 0
_r[15,R1,Recover] 0
_r[15,R2,Do_nothing] 0
_r[15,R2,Recover] 0
_r[15,R3,Do_nothing] 0
_r[15,R3,Recover] 0
_r[24,Do_nothing,Do_nothing] 1
_r[24,Do_nothing,Recover] 0
_r[24,R1,Do_nothing] 0
_r[24,R1,Recover] 0
_r[24,R2,Do_nothing] 0
_r[24,R2,Recover] 0
_r[24,R3,Do_nothing] 0
_r[24,R3,Recover] 0
_r[17,Do_nothing,Do_nothing] 1
_r[17,Do_nothing,Recover] 0
_r[17,R1,Do_nothing] 0
_r[17,R1,Recover] 0
_r[17,R2,Do_nothing] 0
_r[17,R2,Recover] 0
_r[17,R3,Do_nothing] 0
_r[17,R3,Recover] 0
_r[175,Do_nothing,Do_nothing] 1
_r[175,Do_nothing,Recover] 0
_r[175,R1,Do_nothing] 0
_r[175,R1,Recover] 0
_r[175,R2,Do_nothing] 0
_r[175,R2,Recover] 0
_r[175,R3,Do_nothing] 0
_r[175,R3,Recover] 0
_r[101,Do_nothing,Do_nothing] 1
_r[101,Do_nothing,Recover] 0
_r[101,R1,Do_nothing] 0
_r[101,R1,Recover] 0
_r[101,R2,Do_nothing] 0
_r[101,R2,Recover] 0
_r[101,R3,Do_nothing] 0
_r[101,R3,Recover] 0
_r[127,Do_nothing,Do_nothing] 1
_r[127,Do_nothing,Recover] 0
_r[127,R1,Do_nothing] 0
_r[127,R1,Recover] 0
_r[127,R2,Do_nothing] 0
_r[127,R2,Recover] 0
_r[127,R3,Do_nothing] 0
_r[127,R3,Recover] 0
_r[105,Do_nothing,Do_nothing] 1
_r[105,Do_nothing,Recover] 0
_r[105,R1,Do_nothing] 0
_r[105,R1,Recover] 0
_r[105,R2,Do_nothing] 0
_r[105,R2,Recover] 0
_r[105,R3,Do_nothing] 0
_r[105,R3,Recover] 0
_r[115,Do_nothing,Do_nothing] 1
_r[115,Do_nothing,Recover] 0
_r[115,R1,Do_nothing] 0
_r[115,R1,Recover] 0
_r[115,R2,Do_nothing] 0
_r[115,R2,Recover] 0
_r[115,R3,Do_nothing] 0
_r[115,R3,Recover] 0
_r[89,Do_nothing,Do_nothing] 1
_r[89,Do_nothing,Recover] 0
_r[89,R1,Do_nothing] 0
_r[89,R1,Recover] 0
_r[89,R2,Do_nothing] 0
_r[89,R2,Recover] 0
_r[89,R3,Do_nothing] 0
_r[89,R3,Recover] 0
_r[77,Do_nothing,Do_nothing] 1
_r[77,Do_nothing,Recover] 0
_r[77,R1,Do_nothing] 0
_r[77,R1,Recover] 0
_r[77,R2,Do_nothing] 0
_r[77,R2,Recover] 0
_r[77,R3,Do_nothing] 0
_r[77,R3,Recover] 0
_r[25,Do_nothing,Do_nothing] 1
_r[25,Do_nothing,Recover] 0
_r[25,R1,Do_nothing] 0
_r[25,R1,Recover] 0
_r[25,R2,Do_nothing] 0
_r[25,R2,Recover] 0
_r[25,R3,Do_nothing] 0
_r[25,R3,Recover] 0
_r[70,Do_nothing,Do_nothing] 1
_r[70,Do_nothing,Recover] 0
_r[70,R1,Do_nothing] 0
_r[70,R1,Recover] 0
_r[70,R2,Do_nothing] 0
_r[70,R2,Recover] 0
_r[70,R3,Do_nothing] 0
_r[70,R3,Recover] 0
_r[182,Do_nothing,Do_nothing] 1
_r[182,Do_nothing,Recover] 0
_r[182,R1,Do_nothing] 0
_r[182,R1,Recover] 0
_r[182,R2,Do_nothing] 0
_r[182,R2,Recover] 0
_r[182,R3,Do_nothing] 0
_r[182,R3,Recover] 0
_r[1,Do_nothing,Do_nothing] 1
_r[1,Do_nothing,Recover] 0
_r[1,R1,Do_nothing] 0
_r[1,R1,Recover] 0
_r[1,R2,Do_nothing] 0
_r[1,R2,Recover] 0
_r[1,R3,Do_nothing] 0
_r[1,R3,Recover] 0
_r[48,Do_nothing,Do_nothing] 1
_r[48,Do_nothing,Recover] 0
_r[48,R1,Do_nothing] 0
_r[48,R1,Recover] 0
_r[48,R2,Do_nothing] 0
_r[48,R2,Recover] 0
_r[48,R3,Do_nothing] 0
_r[48,R3,Recover] 0
_r[192,Do_nothing,Do_nothing] 1
_r[192,Do_nothing,Recover] 0
_r[192,R1,Do_nothing] 0
_r[192,R1,Recover] 0
_r[192,R2,Do_nothing] 0
_r[192,R2,Recover] 0
_r[192,R3,Do_nothing] 0
_r[192,R3,Recover] 0
_r[40,Do_nothing,Do_nothing] 1
_r[40,Do_nothing,Recover] 0
_r[40,R1,Do_nothing] 0
_r[40,R1,Recover] 0
_r[40,R2,Do_nothing] 0
_r[40,R2,Recover] 0
_r[40,R3,Do_nothing] 0
_r[40,R3,Recover] 0
_r[67,Do_nothing,Do_nothing] 1
_r[67,Do_nothing,Recover] 0
_r[67,R1,Do_nothing] 0
_r[67,R1,Recover] 0
_r[67,R2,Do_nothing] 0
_r[67,R2,Recover] 0
_r[67,R3,Do_nothing] 0
_r[67,R3,Recover] 0
_r[187,Do_nothing,Do_nothing] 1
_r[187,Do_nothing,Recover] 0
_r[187,R1,Do_nothing] 0
_r[187,R1,Recover] 0
_r[187,R2,Do_nothing] 0
_r[187,R2,Recover] 0
_r[187,R3,Do_nothing] 0
_r[187,R3,Recover] 0
_r[139,Do_nothing,Do_nothing] 1
_r[139,Do_nothing,Recover] 0
_r[139,R1,Do_nothing] 0
_r[139,R1,Recover] 0
_r[139,R2,Do_nothing] 0
_r[139,R2,Recover] 0
_r[139,R3,Do_nothing] 0
_r[139,R3,Recover] 0
_r[107,Do_nothing,Do_nothing] 1
_r[107,Do_nothing,Recover] 0
_r[107,R1,Do_nothing] 0
_r[107,R1,Recover] 0
_r[107,R2,Do_nothing] 0
_r[107,R2,Recover] 0
_r[107,R3,Do_nothing] 0
_r[107,R3,Recover] 0
_r[188,Do_nothing,Do_nothing] 1
_r[188,Do_nothing,Recover] 0
_r[188,R1,Do_nothing] 0
_r[188,R1,Recover] 0
_r[188,R2,Do_nothing] 0
_r[188,R2,Recover] 0
_r[188,R3,Do_nothing] 0
_r[188,R3,Recover] 0
_r[85,Do_nothing,Do_nothing] 1
_r[85,Do_nothing,Recover] 0
_r[85,R1,Do_nothing] 0
_r[85,R1,Recover] 0
_r[85,R2,Do_nothing] 0
_r[85,R2,Recover] 0
_r[85,R3,Do_nothing] 0
_r[85,R3,Recover] 0
_r[116,Do_nothing,Do_nothing] 1
_r[116,Do_nothing,Recover] 0
_r[116,R1,Do_nothing] 0
_r[116,R1,Recover] 0
_r[116,R2,Do_nothing] 0
_r[116,R2,Recover] 0
_r[116,R3,Do_nothing] 0
_r[116,R3,Recover] 0
_r[181,Do_nothing,Do_nothing] 1
_r[181,Do_nothing,Recover] 0
_r[181,R1,Do_nothing] 0
_r[181,R1,Recover] 0
_r[181,R2,Do_nothing] 0
_r[181,R2,Recover] 0
_r[181,R3,Do_nothing] 0
_r[181,R3,Recover] 0
_r[84,Do_nothing,Do_nothing] 1
_r[84,Do_nothing,Recover] 0
_r[84,R1,Do_nothing] 0
_r[84,R1,Recover] 0
_r[84,R2,Do_nothing] 0
_r[84,R2,Recover] 0
_r[84,R3,Do_nothing] 0
_r[84,R3,Recover] 0
_r[37,Do_nothing,Do_nothing] 1
_r[37,Do_nothing,Recover] 0
_r[37,R1,Do_nothing] 0
_r[37,R1,Recover] 0
_r[37,R2,Do_nothing] 0
_r[37,R2,Recover] 0
_r[37,R3,Do_nothing] 0
_r[37,R3,Recover] 0
_r[34,Do_nothing,Do_nothing] 1
_r[34,Do_nothing,Recover] 0
_r[34,R1,Do_nothing] 0
_r[34,R1,Recover] 0
_r[34,R2,Do_nothing] 0
_r[34,R2,Recover] 0
_r[34,R3,Do_nothing] 0
_r[34,R3,Recover] 0
_r[174,Do_nothing,Do_nothing] 1
_r[174,Do_nothing,Recover] 0
_r[174,R1,Do_nothing] 0
_r[174,R1,Recover] 0
_r[174,R2,Do_nothing] 0
_r[174,R2,Recover] 0
_r[174,R3,Do_nothing] 0
_r[174,R3,Recover] 0
_r[99,Do_nothing,Do_nothing] 1
_r[99,Do_nothing,Recover] 0
_r[99,R1,Do_nothing] 0
_r[99,R1,Recover] 0
_r[99,R2,Do_nothing] 0
_r[99,R2,Recover] 0
_r[99,R3,Do_nothing] 0
_r[99,R3,Recover] 0
_r[43,Do_nothing,Do_nothing] 1
_r[43,Do_nothing,Recover] 0
_r[43,R1,Do_nothing] 0
_r[43,R1,Recover] 0
_r[43,R2,Do_nothing] 0
_r[43,R2,Recover] 0
_r[43,R3,Do_nothing] 0
_r[43,R3,Recover] 0
_r[133,Do_nothing,Do_nothing] 1
_r[133,Do_nothing,Recover] 0
_r[133,R1,Do_nothing] 0
_r[133,R1,Recover] 0
_r[133,R2,Do_nothing] 0
_r[133,R2,Recover] 0
_r[133,R3,Do_nothing] 0
_r[133,R3,Recover] 0
_r[179,Do_nothing,Do_nothing] 1
_r[179,Do_nothing,Recover] 0
_r[179,R1,Do_nothing] 0
_r[179,R1,Recover] 0
_r[179,R2,Do_nothing] 0
_r[179,R2,Recover] 0
_r[179,R3,Do_nothing] 0
_r[179,R3,Recover] 0
_r[51,Do_nothing,Do_nothing] 1
_r[51,Do_nothing,Recover] 0
_r[51,R1,Do_nothing] 0
_r[51,R1,Recover] 0
_r[51,R2,Do_nothing] 0
_r[51,R2,Recover] 0
_r[51,R3,Do_nothing] 0
_r[51,R3,Recover] 0
_r[11,Do_nothing,Do_nothing] 1
_r[11,Do_nothing,Recover] 0
_r[11,R1,Do_nothing] 0
_r[11,R1,Recover] 0
_r[11,R2,Do_nothing] 0
_r[11,R2,Recover] 0
_r[11,R3,Do_nothing] 0
_r[11,R3,Recover] 0
_r[103,Do_nothing,Do_nothing] 1
_r[103,Do_nothing,Recover] 0
_r[103,R1,Do_nothing] 0
_r[103,R1,Recover] 0
_r[103,R2,Do_nothing] 0
_r[103,R2,Recover] 0
_r[103,R3,Do_nothing] 0
_r[103,R3,Recover] 0
_r[4,Do_nothing,Do_nothing] 1
_r[4,Do_nothing,Recover] 0
_r[4,R1,Do_nothing] 0
_r[4,R1,Recover] 0
_r[4,R2,Do_nothing] 0
_r[4,R2,Recover] 0
_r[4,R3,Do_nothing] 0
_r[4,R3,Recover] 0
_r[177,Do_nothing,Do_nothing] 1
_r[177,Do_nothing,Recover] 0
_r[177,R1,Do_nothing] 0
_r[177,R1,Recover] 0
_r[177,R2,Do_nothing] 0
_r[177,R2,Recover] 0
_r[177,R3,Do_nothing] 0
_r[177,R3,Recover] 0
_r[16,Do_nothing,Do_nothing] 1
_r[16,Do_nothing,Recover] 0
_r[16,R1,Do_nothing] 0
_r[16,R1,Recover] 0
_r[16,R2,Do_nothing] 0
_r[16,R2,Recover] 0
_r[16,R3,Do_nothing] 0
_r[16,R3,Recover] 0
_r[138,Do_nothing,Do_nothing] 1
_r[138,Do_nothing,Recover] 0
_r[138,R1,Do_nothing] 0
_r[138,R1,Recover] 0
_r[138,R2,Do_nothing] 0
_r[138,R2,Recover] 0
_r[138,R3,Do_nothing] 0
_r[138,R3,Recover] 0
_r[194,Do_nothing,Do_nothing] 1
_r[194,Do_nothing,Recover] 0
_r[194,R1,Do_nothing] 0
_r[194,R1,Recover] 0
_r[194,R2,Do_nothing] 0
_r[194,R2,Recover] 0
_r[194,R3,Do_nothing] 0
_r[194,R3,Recover] 0
_r[76,Do_nothing,Do_nothing] 1
_r[76,Do_nothing,Recover] 0
_r[76,R1,Do_nothing] 0
_r[76,R1,Recover] 0
_r[76,R2,Do_nothing] 0
_r[76,R2,Recover] 0
_r[76,R3,Do_nothing] 0
_r[76,R3,Recover] 0
_r[32,Do_nothing,Do_nothing] 1
_r[32,Do_nothing,Recover] 0
_r[32,R1,Do_nothing] 0
_r[32,R1,Recover] 0
_r[32,R2,Do_nothing] 0
_r[32,R2,Recover] 0
_r[32,R3,Do_nothing] 0
_r[32,R3,Recover] 0
_r[5,Do_nothing,Do_nothing] 1
_r[5,Do_nothing,Recover] 0
_r[5,R1,Do_nothing] 0
_r[5,R1,Recover] 0
_r[5,R2,Do_nothing] 0
_r[5,R2,Recover] 0
_r[5,R3,Do_nothing] 0
_r[5,R3,Recover] 0
_r[124,Do_nothing,Do_nothing] 1
_r[124,Do_nothing,Recover] 0
_r[124,R1,Do_nothing] 0
_r[124,R1,Recover] 0
_r[124,R2,Do_nothing] 0
_r[124,R2,Recover] 0
_r[124,R3,Do_nothing] 0
_r[124,R3,Recover] 0
_r[79,Do_nothing,Do_nothing] 1
_r[79,Do_nothing,Recover] 0
_r[79,R1,Do_nothing] 0
_r[79,R1,Recover] 0
_r[79,R2,Do_nothing] 0
_r[79,R2,Recover] 0
_r[79,R3,Do_nothing] 0
_r[79,R3,Recover] 0
_r[143,Do_nothing,Do_nothing] 1
_r[143,Do_nothing,Recover] 0
_r[143,R1,Do_nothing] 0
_r[143,R1,Recover] 0
_r[143,R2,Do_nothing] 0
_r[143,R2,Recover] 0
_r[143,R3,Do_nothing] 0
_r[143,R3,Recover] 0
_r[50,Do_nothing,Do_nothing] 1
_r[50,Do_nothing,Recover] 0
_r[50,R1,Do_nothing] 0
_r[50,R1,Recover] 0
_r[50,R2,Do_nothing] 0
_r[50,R2,Recover] 0
_r[50,R3,Do_nothing] 0
_r[50,R3,Recover] 0
_r[162,Do_nothing,Do_nothing] 1
_r[162,Do_nothing,Recover] 0
_r[162,R1,Do_nothing] 0
_r[162,R1,Recover] 0
_r[162,R2,Do_nothing] 0
_r[162,R2,Recover] 0
_r[162,R3,Do_nothing] 0
_r[162,R3,Recover] 0
_r[190,Do_nothing,Do_nothing] 1
_r[190,Do_nothing,Recover] 0
_r[190,R1,Do_nothing] 0
_r[190,R1,Recover] 0
_r[190,R2,Do_nothing] 0
_r[190,R2,Recover] 0
_r[190,R3,Do_nothing] 0
_r[190,R3,Recover] 0
_r[42,Do_nothing,Do_nothing] 1
_r[42,Do_nothing,Recover] 0
_r[42,R1,Do_nothing] 0
_r[42,R1,Recover] 0
_r[42,R2,Do_nothing] 0
_r[42,R2,Recover] 0
_r[42,R3,Do_nothing] 0
_r[42,R3,Recover] 0
_r[125,Do_nothing,Do_nothing] 1
_r[125,Do_nothing,Recover] 0
_r[125,R1,Do_nothing] 0
_r[125,R1,Recover] 0
_r[125,R2,Do_nothing] 0
_r[125,R2,Recover] 0
_r[125,R3,Do_nothing] 0
_r[125,R3,Recover] 0
_r[78,Do_nothing,Do_nothing] 1
_r[78,Do_nothing,Recover] 0
_r[78,R1,Do_nothing] 0
_r[78,R1,Recover] 0
_r[78,R2,Do_nothing] 0
_r[78,R2,Recover] 0
_r[78,R3,Do_nothing] 0
_r[78,R3,Recover] 0
_r[65,Do_nothing,Do_nothing] 1
_r[65,Do_nothing,Recover] 0
_r[65,R1,Do_nothing] 0
_r[65,R1,Recover] 0
_r[65,R2,Do_nothing] 0
_r[65,R2,Recover] 0
_r[65,R3,Do_nothing] 0
_r[65,R3,Recover] 0
_r[183,Do_nothing,Do_nothing] 1
_r[183,Do_nothing,Recover] 0
_r[183,R1,Do_nothing] 0
_r[183,R1,Recover] 0
_r[183,R2,Do_nothing] 0
_r[183,R2,Recover] 0
_r[183,R3,Do_nothing] 0
_r[183,R3,Recover] 0
_r[22,Do_nothing,Do_nothing] 1
_r[22,Do_nothing,Recover] 0
_r[22,R1,Do_nothing] 0
_r[22,R1,Recover] 0
_r[22,R2,Do_nothing] 0
_r[22,R2,Recover] 0
_r[22,R3,Do_nothing] 0
_r[22,R3,Recover] 0
_r[141,Do_nothing,Do_nothing] 1
_r[141,Do_nothing,Recover] 0
_r[141,R1,Do_nothing] 0
_r[141,R1,Recover] 0
_r[141,R2,Do_nothing] 0
_r[141,R2,Recover] 0
_r[141,R3,Do_nothing] 0
_r[141,R3,Recover] 0
_r[199,Do_nothing,Do_nothing] 1
_r[199,Do_nothing,Recover] 0
_r[199,R1,Do_nothing] 0
_r[199,R1,Recover] 0
_r[199,R2,Do_nothing] 0
_r[199,R2,Recover] 0
_r[199,R3,Do_nothing] 0
_r[199,R3,Recover] 0
_r[200,Do_nothing,Do_nothing] 1
_r[200,Do_nothing,Recover] 0
_r[200,R1,Do_nothing] 0
_r[200,R1,Recover] 0
_r[200,R2,Do_nothing] 0
_r[200,R2,Recover] 0
_r[200,R3,Do_nothing] 0
_r[200,R3,Recover] 0
_r[98,Do_nothing,Do_nothing] 1
_r[98,Do_nothing,Recover] 0
_r[98,R1,Do_nothing] 0
_r[98,R1,Recover] 0
_r[98,R2,Do_nothing] 0
_r[98,R2,Recover] 0
_r[98,R3,Do_nothing] 0
_r[98,R3,Recover] 0
_r[74,Do_nothing,Do_nothing] 1
_r[74,Do_nothing,Recover] 0
_r[74,R1,Do_nothing] 0
_r[74,R1,Recover] 0
_r[74,R2,Do_nothing] 0
_r[74,R2,Recover] 0
_r[74,R3,Do_nothing] 0
_r[74,R3,Recover] 0
_r[113,Do_nothing,Do_nothing] 1
_r[113,Do_nothing,Recover] 0
_r[113,R1,Do_nothing] 0
_r[113,R1,Recover] 0
_r[113,R2,Do_nothing] 0
_r[113,R2,Recover] 0
_r[113,R3,Do_nothing] 0
_r[113,R3,Recover] 0
_r[121,Do_nothing,Do_nothing] 1
_r[121,Do_nothing,Recover] 0
_r[121,R1,Do_nothing] 0
_r[121,R1,Recover] 0
_r[121,R2,Do_nothing] 0
_r[121,R2,Recover] 0
_r[121,R3,Do_nothing] 0
_r[121,R3,Recover] 0
_r[7,Do_nothing,Do_nothing] 1
_r[7,Do_nothing,Recover] 0
_r[7,R1,Do_nothing] 0
_r[7,R1,Recover] 0
_r[7,R2,Do_nothing] 0
_r[7,R2,Recover] 0
_r[7,R3,Do_nothing] 0
_r[7,R3,Recover] 0
_r[23,Do_nothing,Do_nothing] 1
_r[23,Do_nothing,Recover] 0
_r[23,R1,Do_nothing] 0
_r[23,R1,Recover] 0
_r[23,R2,Do_nothing] 0
_r[23,R2,Recover] 0
_r[23,R3,Do_nothing] 0
_r[23,R3,Recover] 0
_r[184,Do_nothing,Do_nothing] 1
_r[184,Do_nothing,Recover] 0
_r[184,R1,Do_nothing] 0
_r[184,R1,Recover] 0
_r[184,R2,Do_nothing] 0
_r[184,R2,Recover] 0
_r[184,R3,Do_nothing] 0
_r[184,R3,Recover] 0
_r[132,Do_nothing,Do_nothing] 1
_r[132,Do_nothing,Recover] 0
_r[132,R1,Do_nothing] 0
_r[132,R1,Recover] 0
_r[132,R2,Do_nothing] 0
_r[132,R2,Recover] 0
_r[132,R3,Do_nothing] 0
_r[132,R3,Recover] 0
_r[195,Do_nothing,Do_nothing] 1
_r[195,Do_nothing,Recover] 0
_r[195,R1,Do_nothing] 0
_r[195,R1,Recover] 0
_r[195,R2,Do_nothing] 0
_r[195,R2,Recover] 0
_r[195,R3,Do_nothing] 0
_r[195,R3,Recover] 0
_r[118,Do_nothing,Do_nothing] 1
_r[118,Do_nothing,Recover] 0
_r[118,R1,Do_nothing] 0
_r[118,R1,Recover] 0
_r[118,R2,Do_nothing] 0
_r[118,R2,Recover] 0
_r[118,R3,Do_nothing] 0
_r[118,R3,Recover] 0
_r[27,Do_nothing,Do_nothing] 1
_r[27,Do_nothing,Recover] 0
_r[27,R1,Do_nothing] 0
_r[27,R1,Recover] 0
_r[27,R2,Do_nothing] 0
_r[27,R2,Recover] 0
_r[27,R3,Do_nothing] 0
_r[27,R3,Recover] 0
_r[73,Do_nothing,Do_nothing] 1
_r[73,Do_nothing,Recover] 0
_r[73,R1,Do_nothing] 0
_r[73,R1,Recover] 0
_r[73,R2,Do_nothing] 0
_r[73,R2,Recover] 0
_r[73,R3,Do_nothing] 0
_r[73,R3,Recover] 0
_r[102,Do_nothing,Do_nothing] 1
_r[102,Do_nothing,Recover] 0
_r[102,R1,Do_nothing] 0
_r[102,R1,Recover] 0
_r[102,R2,Do_nothing] 0
_r[102,R2,Recover] 0
_r[102,R3,Do_nothing] 0
_r[102,R3,Recover] 0
_r[38,Do_nothing,Do_nothing] 1
_r[38,Do_nothing,Recover] 0
_r[38,R1,Do_nothing] 0
_r[38,R1,Recover] 0
_r[38,R2,Do_nothing] 0
_r[38,R2,Recover] 0
_r[38,R3,Do_nothing] 0
_r[38,R3,Recover] 0
